10
shortest_path: 126
-1 25 40 38 28 36 24 29 10 18
25 -1 25 13 39 11 20 13 11 25
40 25 -1 13 35 16 33 17 22 20
38 13 13 -1 10 27 25 17 39 37
28 39 35 10 -1 36 10 22 40 29
36 11 16 27 36 -1 30 13 31 19
24 20 33 25 10 30 -1 25 11 18
29 13 17 17 22 13 25 -1 29 14
10 11 22 39 40 31 11 29 -1 26
18 25 20 37 29 19 18 14 26 -1